qe/outputs/qe/qe_queries/T=5,eliminate=[I_0,I_1,I_2,I_3,I_4,L_4,C].smt2
; benchmark generated from python API
(set-info :status unknown)
(declare-fun S_1 () Real)
(declare-fun S_2 () Real)
(declare-fun A_2 () Real)
(declare-fun L_2 () Real)
(declare-fun B () Real)
(declare-fun S_3 () Real)
(declare-fun S_4 () Real)
(declare-fun A_3 () Real)
(declare-fun L_3 () Real)
(declare-fun A_0 () Real)
(declare-fun L_0 () Real)
(declare-fun S_0 () Real)
(declare-fun A_1 () Real)
(declare-fun L_1 () Real)
(declare-fun A_4 () Real)
(assert
 (let (($x1623 (<= (+ (* (- 1.0) S_3) (* (- 1.0) B) (* (- 1.0) L_2) A_2) 0.0)))
 (let (($x2138 (<= (+ (* (- 1.0) S_4) (* (- 1.0) L_3) (* (- 1.0) B) A_3) 0.0)))
 (let (($x1573 (<= (+ (* (- 1.0) S_2) (* (- 1.0) L_1) (* (- 1.0) B) A_1) 0.0)))
 (let (($x1314 (>= B 0.0)))
 (let (($x1338 (<= (+ (* (- 1.0) L_1) (* (- 1.0) S_1) (* (- 1.0) B) A_0) 0.0)))
 (let ((?x873 (* (- 1.0) A_1)))
 (let ((?x721 (* (- 1.0) L_0)))
 (let ((?x825 (* (- 1.0) A_2)))
 (let (($x1828 (<= (+ (* (- 1.0) A_0) S_0 B L_1) 0.0)))
 (let (($x1297 (= B 0.0)))
 (let ((?x730 (* (- 1.0) L_1)))
 (let (($x642 (= ?x730 ?x721)))
 (let (($x21269 (or $x642 $x1297 $x1828 (<= (+ ?x825 L_2 S_3 A_0 ?x721 L_1 B ?x873) 0.0))))
 (let ((?x1576 (* (- 2.0) A_1)))
 (let ((?x1574 (* 2.0 L_1)))
 (let ((?x1575 (* 2.0 B)))
 (let ((?x1566 (* (- 2.0) L_0)))
 (let ((?x1565 (* 2.0 A_0)))
 (let (($x40990 (or $x642 $x1297 $x1828 (<= (+ S_4 ?x825 L_2 ?x1565 ?x1566 ?x1575 ?x1574 ?x1576) 0.0))))
 (let (($x5173 (<= (+ L_3 (* (- 1.0) A_3) S_4 A_0 ?x721 B L_1 ?x873) 0.0)))
 (let ((?x4753 (* (- (/ 1.0 2.0)) L_0)))
 (let ((?x9405 (* (- (/ 1.0 2.0)) S_3)))
 (let ((?x6123 (* (/ 1.0 2.0) A_0)))
 (let ((?x817 (* (- 1.0) A_3)))
 (let (($x1271 (<= (+ A_2 (* (- 1.0) L_2) (* (- 1.0) S_3)) 0.0)))
 (let (($x19164 (or $x1271 (<= (+ L_3 ?x817 S_4 ?x730 A_1 (* (- 1.0) S_3)) 0.0) (<= (+ L_3 ?x817 S_4 ?x6123 ?x9405 ?x4753) 0.0))))
 (let ((?x1569 (* (- 3.0) A_1)))
 (let ((?x1568 (* 3.0 B)))
 (let ((?x1567 (* 3.0 L_1)))
 (let ((?x5404 (* (/ 1.0 2.0) L_0)))
 (let ((?x6121 (* (- (/ 1.0 2.0)) A_0)))
 (let ((?x1281 (* (- 1.0) S_4)))
 (let (($x1251 (<= (+ (* (- 1.0) L_3) A_3 ?x1281) 0.0)))
 (let (($x8126 (<= (+ (* (- (/ 1.0 3.0)) S_4) (* (- (/ 2.0 3.0)) A_0) (* (/ 2.0 3.0) L_0) S_1) 0.0)))
 (let (($x6129 (<= (+ ?x6121 ?x5404 S_1 (* (/ 1.0 2.0) L_2) (* (- (/ 1.0 2.0)) A_2)) 0.0)))
 (let (($x7163 (<= (+ ?x1281 A_2 (* (- 1.0) L_2) (* (- 1.0) A_0) L_0 S_1) 0.0)))
 (let ((?x761 (* (- 1.0) B)))
 (let ((?x7511 (* (/ 2.0 3.0) L_0)))
 (let ((?x7510 (* (- (/ 2.0 3.0)) A_0)))
 (let ((?x7736 (* (- (/ 1.0 3.0)) S_4)))
 (let ((?x767 (* (- 1.0) A_0)))
 (let ((?x739 (* (- 1.0) L_2)))
 (let (($x25809 (or $x1251 (<= (+ ?x1281 A_2 ?x739 ?x767 L_0 ?x730 ?x761 A_1) 0.0) (<= (+ ?x7736 ?x7510 ?x7511 ?x730 ?x761 A_1) 0.0))))
 (let (($x6141 (<= (+ ?x6121 ?x5404 ?x761 ?x730 (* (/ 1.0 2.0) L_2) A_1 (* (- (/ 1.0 2.0)) A_2)) 0.0)))
 (let ((?x1546 (* 2.0 A_1)))
 (let ((?x1264 (* (- 2.0) B)))
 (let ((?x1369 (* (- 2.0) L_1)))
 (let (($x41499 (or (not (<= (+ ?x767 L_0 L_2 ?x1369 ?x1264 ?x1546 ?x825) 0.0)) (<= (+ ?x6121 ?x5404 ?x9405 ?x730 ?x761 A_1) 0.0))))
 (let (($x8176 (<= (+ ?x1369 ?x1546 S_4 (* 3.0 L_2) ?x1568 (* (- 3.0) A_2)) 0.0)))
 (let (($x3307 (<= (+ ?x730 L_2) 0.0)))
 (let (($x1781 (<= (+ S_4 A_0 ?x721 ?x1575 (* 2.0 L_2) (* (- 2.0) A_2)) 0.0)))
 (let ((?x8134 (+ (* (- (/ 2.0 3.0)) S_4) (* (- (/ 1.0 3.0)) A_0) (* (/ 1.0 3.0) L_0) ?x739 ?x761 A_2)))
 (let ((?x1289 (* (- 1.0) S_3)))
 (let ((?x6723 (* (/ 1.0 3.0) S_4)))
 (let ((?x13803 (* (/ 2.0 3.0) A_1)))
 (let ((?x13879 (* (- (/ 2.0 3.0)) L_1)))
 (let (($x17038 (or $x1271 (<= (+ S_4 A_0 ?x721 (* (- 2.0) S_3)) 0.0) (<= (+ ?x13879 ?x13803 ?x6723 ?x1289) 0.0))))
 (let (($x12894 (<= (+ S_4 (* 3.0 A_0) (* (- 3.0) L_0) (* (- 4.0) S_2)) 0.0)))
 (let (($x1212 (<= (+ ?x730 A_1 (* (- 1.0) S_2)) 0.0)))
 (let ((?x1236 (* (- 1.0) S_2)))
 (let ((?x7502 (* (/ 1.0 3.0) S_3)))
 (let ((?x7459 (* (- (/ 2.0 3.0)) L_0)))
 (let ((?x7487 (* (/ 2.0 3.0) A_0)))
 (let (($x1865 (<= (+ (* (/ 1.0 2.0) L_1) (* (- (/ 1.0 2.0)) A_1) (* (- (/ 1.0 2.0)) S_4) S_2) 0.0)))
 (let (($x8364 (<= (+ S_4 A_2 ?x739 (* 2.0 L_3) ?x1575 (* (- 2.0) A_3)) 0.0)))
 (let (($x3298 (<= (+ L_3 ?x730) 0.0)))
 (let (($x2160 (<= (+ (* 2.0 A_2) (* (- 2.0) L_2) L_1 ?x873 L_3 B ?x817) 0.0)))
 (let (($x2134 (not $x2160)))
 (let ((?x1862 (* (- 2.0) A_3)))
 (let ((?x1861 (* 2.0 L_3)))
 (let ((?x1815 (* (- 3.0) L_2)))
 (let ((?x1795 (* 3.0 A_2)))
 (let (($x2158 (<= (+ ?x1795 ?x1815 ?x1861 L_0 ?x1575 ?x767 ?x1862) 0.0)))
 (let (($x2100 (not $x2158)))
 (let ((?x1529 (* 2.0 L_0)))
 (let ((?x1549 (* (- 2.0) A_0)))
 (let (($x1582 (<= (+ ?x739 L_3) 0.0)))
 (let (($x1580 (<= (+ S_1 L_1 B ?x873) 0.0)))
 (let (($x41287 (or $x1580 $x1582 $x2158 (<= (+ ?x1549 ?x1529 (* 3.0 S_1) L_3 B ?x817) 0.0))))
 (let ((?x2145 (* (- 4.0) A_3)))
 (let ((?x1597 (* 4.0 B)))
 (let ((?x2311 (* 4.0 L_3)))
 (let ((?x2314 (* 3.0 S_4)))
 (let (($x2332 (<= (+ ?x1565 ?x1566 (* (- 1.0) L_3) ?x1567 ?x761 ?x1569 A_3) 0.0)))
 (let (($x39861 (or $x1297 $x1582 $x2158 (not $x2332) (<= (+ ?x2314 A_0 ?x721 ?x2311 ?x1597 ?x2145) 0.0))))
 (let (($x40943 (or $x1297 $x1582 (<= (+ ?x767 L_0 (* 3.0 S_2) ?x1861 ?x1575 ?x1862) 0.0))))
 (let (($x2330 (<= (+ ?x1549 ?x1529 L_3 (* (- 3.0) L_1) ?x1264 (* 3.0 A_1) ?x817) 0.0)))
 (let ((?x1844 (* 2.0 A_3)))
 (let ((?x1629 (* (- 3.0) A_2)))
 (let ((?x1847 (* (- 2.0) L_3)))
 (let ((?x1817 (* 3.0 L_2)))
 (let (($x1852 (<= (+ A_0 ?x721 B ?x1817 ?x1847 ?x1629 ?x1844) 0.0)))
 (let (($x21472 (or $x1297 $x1852 $x3307 (<= (+ ?x1369 ?x1546 L_0 L_2 B ?x767 ?x825) 0.0))))
 (let (($x3978 (<= (+ ?x1861 ?x1862 (* 2.0 S_4) A_0 ?x721 L_2 B ?x825) 0.0)))
 (let (($x23271 (or $x1297 $x3307 $x3978 (<= (+ L_3 ?x817 S_4 ?x730 A_1 B L_2 ?x825) 0.0))))
 (let ((?x2843 (* (- (/ 1.0 2.0)) S_4)))
 (let ((?x2902 (* (- (/ 1.0 2.0)) A_1)))
 (let ((?x2912 (* (/ 1.0 2.0) L_1)))
 (let ((?x1788 (* (- 2.0) A_2)))
 (let ((?x1774 (* 2.0 L_2)))
 (let ((?x748 (* (- 1.0) L_3)))
 (let (($x40741 (or $x2160 $x2332 $x3307 (<= (+ ?x730 A_1 ?x748 ?x1774 B ?x1788 A_3) 0.0))))
 (let (($x2641 (<= (+ L_1 ?x873 L_3 (* (- 2.0) L_2) ?x761 (* 2.0 A_2) ?x817) 0.0)))
 (let ((?x2148 (* (- 3.0) A_3)))
 (let ((?x2144 (* 3.0 L_3)))
 (let ((?x1964 (* 2.0 S_4)))
 (let (($x40552 (or $x1297 $x1582 $x2160 $x2332 (<= (+ ?x730 A_1 ?x1964 ?x2144 ?x1568 ?x2148) 0.0))))
 (let (($x20730 (or $x642 $x1297 $x1828 (<= (+ ?x825 L_2 A_0 ?x721 L_1 ?x748 ?x873 A_3) 0.0))))
 (let (($x41445 (or $x642 $x1297 (<= (+ A_0 ?x721 ?x739 ?x1574 B ?x1576 A_2) 0.0) $x1828)))
 (let (($x40025 (or $x1297 (<= (+ A_0 ?x721 (* 2.0 S_3) ?x1568 ?x1817 ?x1629) 0.0) $x3307 (<= (+ ?x730 A_1 S_3 ?x1774 ?x1575 ?x1788) 0.0))))
 (let (($x40485 (or $x1297 $x1582 (<= (+ L_1 ?x873 (* 2.0 S_2) L_3 B ?x817) 0.0))))
 (let (($x11930 (or $x1271 (<= (+ A_0 ?x721 (* (- 3.0) S_3) ?x1847 ?x1264 ?x1844) 0.0) (<= (+ ?x730 A_1 (* (- 2.0) S_3) ?x748 ?x761 A_3) 0.0))))
 (let (($x40266 (or $x642 $x1297 (<= (+ ?x1565 ?x1566 ?x1567 ?x748 ?x1575 ?x1569 A_3) 0.0) $x1828)))
 (let (($x39464 (or $x1297 $x2100 $x3298 (<= (+ A_2 ?x739 ?x767 L_0 L_3 ?x730 A_1 ?x817) 0.0))))
 (let (($x20338 (or $x642 $x1297 (not $x1852) $x1828 (<= (+ ?x748 A_3 A_0 ?x721 L_2 L_1 B ?x873 ?x825) 0.0))))
 (let ((?x1599 (* (- 4.0) A_1)))
 (let ((?x1596 (* 4.0 L_1)))
 (let ((?x1595 (* (- 3.0) L_0)))
 (let ((?x1594 (* 3.0 A_0)))
 (let (($x41479 (or $x1580 $x1582 (not (<= (+ A_0 ?x721 ?x1847 ?x1817 ?x1264 ?x1629 ?x1844) 0.0)) $x6129)))
 (let (($x6903 (or $x1212 (<= (+ S_4 ?x825 L_2 ?x1565 (* (- 2.0) S_2) ?x1566) 0.0))))
 (let (($x2334 (<= (+ A_0 ?x721 ?x1847 ?x1817 ?x1264 ?x1629 ?x1844) 0.0)))
 (let (($x40059 (or $x1580 $x1582 $x2334 (<= (+ A_2 ?x739 ?x767 L_0 S_1 L_3 B ?x817) 0.0))))
 (let (($x6071 (or $x1212 (<= (+ ?x825 L_2 A_0 ?x1236 ?x721 ?x748 ?x761 A_3) 0.0))))
 (let (($x21442 (or $x1580 (<= (+ ?x767 L_0 (* 2.0 S_1) B L_2 ?x825) 0.0) $x3307)))
 (let (($x3689 (or $x1212 (<= (+ ?x1565 ?x1566 (* (- 3.0) S_2) ?x748 ?x761 A_3) 0.0))))
 (let (($x2674 (or $x1212 (<= (+ A_0 ?x721 (* (- 2.0) S_2) ?x761 ?x739 A_2) 0.0))))
 (and (<= ?x730 ?x721) (<= ?x748 ?x739) (or $x642 $x1580 $x1828) (<= ?x739 ?x730) (or (= ?x739 ?x730) (<= (+ S_2 B L_2 ?x825) 0.0)) (or $x1582 (<= (+ S_3 L_3 B ?x817) 0.0)) $x2674 $x3689 $x21442 (or $x1297 $x1582 (<= (+ ?x767 L_0 ?x1861 ?x1815 ?x761 ?x1795 ?x1862) 0.0)) $x6071 $x40059 (or $x1212 (<= (+ L_3 ?x817 S_4 A_0 ?x1236 ?x721) 0.0)) $x6903 (or $x1212 (<= (+ ?x825 L_2 S_3 A_0 ?x1236 ?x721) 0.0)) $x41479 (or $x1297 $x2134 $x3307) (or $x642 $x1297 $x1828 (<= (+ S_4 ?x1594 ?x1595 ?x1596 ?x1597 ?x1599) 0.0)) $x20338 $x39464 (or $x642 $x1297 (<= (+ A_0 ?x721 S_2 ?x1574 ?x1575 ?x1576) 0.0) $x1828) $x40266 $x11930 $x40485 (or $x1297 (<= (+ ?x767 L_0 ?x761 ?x1369 L_2 ?x1546 ?x825) 0.0) $x3307) $x40025 $x41445 $x20730 $x40552 (or $x1297 $x1582 $x2641) $x40741 (or $x1251 (<= (+ ?x2912 ?x2902 ?x2843 ?x739 ?x761 A_2) 0.0)) $x23271 $x21472 (or $x1297 $x2158 $x2330 $x3298 (not $x3307)) $x40943 $x39861 $x41287 (or $x1297 $x2100 $x2134 $x3298 $x8364) (or $x1251 $x1865) (or $x1212 (<= (+ ?x7487 ?x7459 ?x7502 ?x1236) 0.0)) (or $x1212 $x12894) $x17038 (or $x1251 (<= ?x8134 0.0)) (or $x1297 $x1781 $x3307 $x8176) $x41499 (or $x1271 (<= (+ ?x6121 ?x5404 ?x9405 S_1) 0.0)) (or $x1271 $x6141) $x25809 (or $x1251 $x6129 $x7163) (or $x1251 (not $x6129) $x8126) (or $x1251 (<= (+ ?x1281 ?x6121 ?x5404 (* (/ 3.0 2.0) S_2)) 0.0)) (or $x642 $x1297 (<= (+ ?x1565 ?x1566 S_3 ?x1567 ?x1568 ?x1569) 0.0) $x1828) $x19164 (or $x642 $x1297 $x1828 $x5173) $x40990 $x21269 $x1338 $x1314 (<= (+ L_3 S_4 (* (- 1.0) A_4)) 0.0) (<= (+ (* (- 1.0) S_1) S_0) 0.0) (<= (+ L_1 ?x873 S_1) 0.0) (<= (+ ?x825 L_2 S_2) 0.0) (<= (+ L_3 ?x817 S_3) 0.0) $x1573 (<= (+ S_0 L_0 ?x767) 0.0) $x2138 (<= (+ ?x1281 S_3) 0.0) (<= (+ ?x1289 S_2) 0.0) $x1623 (<= (+ ?x1236 S_1) 0.0))))))))))))))))))))))))))))))))))))))))))))))))))))))))))))))))))))))))))))))))))))))))))))))))))))))))))))))))))))))))))))))))))
(check-sat)
